(declare-const havoc Int)
(declare-const |phi_x:16:19:41| Int)
(declare-const |phi_x:14:15:18:40| Int)
(declare-const |havoc:6:13:17:39| Int)
(declare-const |havoc:2| Int)
(assert (and (= havoc 0) (< (- |havoc:2|) 0)
               (or (and (< (+ (- |havoc:2|) havoc) 0)
                          (< (+ |havoc:6:13:17:39| (- |havoc:2|)) 0)
                          (or (and (<= (+ (- |havoc:6:13:17:39|) |havoc:2|) 0)
                                     (= (+ (- |phi_x:14:15:18:40|)
                                             |havoc:6:13:17:39|) 0))
                                (and (< (+ |havoc:6:13:17:39| (- |havoc:2|)) 0)
                                       (= (+ (- |phi_x:14:15:18:40|)
                                               |havoc:6:13:17:39| 1) 0)))
                          (<= (+ (- |phi_x:14:15:18:40|) |havoc:2|) 0)
                          (= (+ (- |phi_x:16:19:41|) |phi_x:14:15:18:40|) 0))
                     (and (<= (+ |havoc:2| (- havoc)) 0)
                            (= (+ (- |phi_x:16:19:41|) havoc) 0)))
               (not (= (+ |phi_x:16:19:41| (- |havoc:2|)) 0))))
(check-sat)
